; 
(set-info :status unknown)
(declare-fun node_0x7ffff39e63f0 () (_ BitVec 1))
(declare-fun node_0x7ffff39e7da0 () (_ BitVec 1))
(declare-fun node_0x7ffff3a370e0 () (_ BitVec 1))
(declare-fun carg_node_0x7ffff39e55a0 () (_ BitVec 64))
(declare-fun carg_node_0x7ffff39e5050 () (_ BitVec 64))
(declare-fun select_0x7ffff3a37770 () (_ BitVec 64))
(declare-fun iult_0x7ffff3a37260 () (_ BitVec 1))
(declare-fun LdMem_0x7ffff3a36e10 () (_ BitVec 64))
(declare-fun node_0x7ffff3a36c90 () (_ BitVec 64))
(declare-fun parg_node_0x4d45f800 () (_ BitVec 64))
(declare-fun StMem_0x4d45f650 () (_ BitVec 64))
(declare-fun R0x7ffff39e5160 () (_ BitVec 1))
(declare-fun node_0x7ffff3a36310 () (_ BitVec 64))
(declare-fun LdMem_0x7ffff3a36490 () (_ BitVec 64))
(declare-fun parg_node_0x4d460050 () (_ BitVec 64))
(declare-fun StMem_0x4d45fea0 () (_ BitVec 64))
(declare-fun ine_0x7ffff3a356d0 () (_ BitVec 1))
(declare-fun node_0x7ffff3a353e0 () (_ BitVec 32))
(declare-fun zext_0x7ffff3a351e0 () (_ BitVec 32))
(declare-fun node_0x7ffff3a35060 () (_ BitVec 32))
(declare-fun node_0x7ffff3a34400 () (_ BitVec 8))
(declare-fun LdMem_0x7ffff3a34d90 () (_ BitVec 8))
(declare-fun parg_node_0x4d435940 () (_ BitVec 8))
(declare-fun StMem_0x4d435830 () (_ BitVec 8))
(declare-fun node_0x7ffff39e6f40 () (_ BitVec 1))
(declare-fun ine_0x7ffff3a33980 () (_ BitVec 1))
(declare-fun node_0x7ffff3a335b0 () (_ BitVec 64))
(declare-fun and_0x7ffff3a33750 () (_ BitVec 64))
(declare-fun node_0x7ffff3a33240 () (_ BitVec 64))
(declare-fun p2i_0x7ffff3a333b0 () (_ BitVec 64))
(declare-fun ine_0x7ffff3a32ea0 () (_ BitVec 1))
(declare-fun node_0x7ffff3a32550 () (_ BitVec 32))
(declare-fun zext_0x7ffff3a32350 () (_ BitVec 32))
(declare-fun node_0x7ffff3a321d0 () (_ BitVec 32))
(declare-fun node_0x7ffff3a31d80 () (_ BitVec 8))
(declare-fun LdMem_0x7ffff3a31f00 () (_ BitVec 8))
(declare-fun parg_node_0x4d435700 () (_ BitVec 8))
(declare-fun StMem_0x4d4355f0 () (_ BitVec 8))
(declare-fun node_0x7ffff39e6aa0 () (_ BitVec 1))
(declare-fun ine_0x7ffff3a30cc0 () (_ BitVec 1))
(declare-fun node_0x7ffff3a307b0 () (_ BitVec 64))
(declare-fun and_0x7ffff3a30950 () (_ BitVec 64))
(declare-fun node_0x7ffff3a30410 () (_ BitVec 64))
(declare-fun p2i_0x7ffff39ebe00 () (_ BitVec 64))
(declare-fun node_0x7ffff3a375d0 () (_ BitVec 64))
(declare-fun node_0x7ffff39eda50 () (_ BitVec 1))
(declare-fun node_0x7ffff39ee630 () (_ BitVec 1))
(declare-fun node_0x7ffff39f0740 () (_ BitVec 1))
(declare-fun node_0x7ffff39f1400 () (_ BitVec 1))
(declare-fun node_0x7ffff39f2180 () (_ BitVec 1))
(declare-fun node_0x7ffff39f5df0 () (_ BitVec 1))
(declare-fun node_0x7ffff39f6aa0 () (_ BitVec 1))
(declare-fun node_0x7ffff39f9250 () (_ BitVec 1))
(declare-fun node_0x7ffff39f84f0 () (_ BitVec 1))
(declare-fun node_0x7ffff3a05000 () (_ BitVec 1))
(declare-fun node_0x7ffff3a088d0 () (_ BitVec 1))
(declare-fun node_0x7ffff3a20950 () (_ BitVec 1))
(declare-fun node_0x7ffff3a09830 () (_ BitVec 1))
(declare-fun node_0x7ffff3a1d540 () (_ BitVec 1))
(declare-fun node_0x7ffff39fcdf0 () (_ BitVec 1))
(declare-fun node_0x7ffff3a17210 () (_ BitVec 1))
(declare-fun node_0x7ffff39fc050 () (_ BitVec 1))
(declare-fun node_0x7ffff3a14cc0 () (_ BitVec 1))
(declare-fun gep_0x7ffff3ae9fb0 () (_ BitVec 64))
(declare-fun node_0x7ffff3a50250 () (_ BitVec 64))
(declare-fun islt_0x7ffff3a53a20 () (_ BitVec 1))
(declare-fun islt_0x7ffff3aa8840 () (_ BitVec 1))
(declare-fun udiv_0x7ffff3a503f0 () (_ BitVec 64))
(declare-fun LdMem_0x7ffff3a4ff00 () (_ BitVec 64))
(declare-fun node_0x7ffff3a4fd80 () (_ BitVec 64))
(declare-fun node_0x7ffff3a54790 () (_ BitVec 64))
(declare-fun islt_0x7ffff3a57df0 () (_ BitVec 1))
(declare-fun islt_0x7ffff3aac140 () (_ BitVec 1))
(declare-fun udiv_0x7ffff3a54930 () (_ BitVec 64))
(declare-fun node_0x7ffff3a54310 () (_ BitVec 64))
(declare-fun node_0x7ffff3a67f40 () (_ BitVec 64))
(declare-fun islt_0x7ffff3a6ea50 () (_ BitVec 1))
(declare-fun islt_0x7ffff3ad50e0 () (_ BitVec 1))
(declare-fun islt_0x7ffff3a6e560 () (_ BitVec 1))
(declare-fun islt_0x7ffff3ae99f0 () (_ BitVec 1))
(declare-fun udiv_0x7ffff3a680e0 () (_ BitVec 64))
(declare-fun node_0x7ffff3a67ac0 () (_ BitVec 64))
(declare-fun xor_0x28f75560 () (_ BitVec 1))
(declare-fun R0x28f75380 () (_ BitVec 1))
(declare-fun R0x28f6d490 () (_ BitVec 1))
(declare-fun ieq_0x7ffff3a671c0 () (_ BitVec 1))
(declare-fun node_0x7ffff3a66f20 () (_ BitVec 32))
(declare-fun zext_0x7ffff3a64c30 () (_ BitVec 32))
(declare-fun node_0x7ffff3a64ab0 () (_ BitVec 32))
(declare-fun node_0x7ffff3a64690 () (_ BitVec 8))
(declare-fun LdMem_0x7ffff3a647e0 () (_ BitVec 8))
(declare-fun node_0x28e97210 () (_ BitVec 8))
(declare-fun StMem_0x4d465b50 () (_ BitVec 8))
(declare-fun node_0x4d4fbe70 () (_ BitVec 64))
(declare-fun trunc_0x4d4fbfa0 () (_ BitVec 8))
(declare-fun node_0x28e978b0 () (_ BitVec 8))
(declare-fun StMem_0x4d465640 () (_ BitVec 8))
(declare-fun node_0x4d4fbad0 () (_ BitVec 64))
(declare-fun trunc_0x4d4fbc00 () (_ BitVec 8))
(declare-fun node_0x7ffff39fdd70 () (_ BitVec 1))
(declare-fun node_0x7ffff3a4e770 () (_ BitVec 64))
(declare-fun ieq_0x7ffff3a4f140 () (_ BitVec 1))
(declare-fun iult_0x7ffff3a441e0 () (_ BitVec 1))
(declare-fun mul_0x7ffff3a43fb0 () (_ BitVec 64))
(declare-fun node_0x7ffff3a418f0 () (_ BitVec 64))
(declare-fun node_0x7ffff3a43e10 () (_ BitVec 64))
(declare-fun node_0x7ffff3a438f0 () (_ BitVec 64))
(declare-fun LdMem_0x7ffff3a43a70 () (_ BitVec 64))
(declare-fun parg_node_0x4d479960 () (_ BitVec 64))
(declare-fun StMem_0x4d479820 () (_ BitVec 64))
(declare-fun islt_0x7ffff3a450e0 () (_ BitVec 1))
(declare-fun iult_0x7ffff3a481c0 () (_ BitVec 1))
(declare-fun node_0x7ffff3a47da0 () (_ BitVec 64))
(declare-fun udiv_0x7ffff3a47f40 () (_ BitVec 64))
(declare-fun node_0x7ffff3a47790 () (_ BitVec 64))
(declare-fun LdMem_0x7ffff3a47910 () (_ BitVec 64))
(declare-fun islt_0x7ffff3a4ec30 () (_ BitVec 1))
(declare-fun ieq_0x7ffff3a4f4f0 () (_ BitVec 1))
(declare-fun node_0x7ffff3a34930 () (_ BitVec 64))
(declare-fun p2i_0x7ffff3a4e8f0 () (_ BitVec 64))
(declare-fun ine_0x7ffff3a588f0 () (_ BitVec 1))
(declare-fun node_0x7ffff3a58520 () (_ BitVec 64))
(declare-fun and_0x7ffff3a586c0 () (_ BitVec 64))
(declare-fun node_0x7ffff3a581d0 () (_ BitVec 64))
(declare-fun p2i_0x7ffff3a58320 () (_ BitVec 64))
(declare-fun LdMem_0x7ffff3a34ad0 () (_ BitVec 64))
(declare-fun parg_node_0x4d45e7e0 () (_ BitVec 64))
(declare-fun StMem_0x4d45e630 () (_ BitVec 64))
(declare-fun parg_node_0x4d45df30 () (_ BitVec 64))
(declare-fun StMem_0x4d45dd80 () (_ BitVec 64))
(declare-fun islt_0x7ffff3a46ec0 () (_ BitVec 1))
(declare-fun node_0x7ffff3a40cf0 () (_ BitVec 64))
(declare-fun node_0x7ffff3a3bf70 () (_ BitVec 64))
(declare-fun ine_0x7ffff3a41510 () (_ BitVec 1))
(declare-fun node_0x7ffff3a410f0 () (_ BitVec 64))
(declare-fun srem_0x7ffff3a41290 () (_ BitVec 64))
(declare-fun node_0x7ffff3a401e0 () (_ BitVec 64))
(declare-fun add_0x7ffff3a40e60 () (_ BitVec 64))
(declare-fun ine_0x7ffff3a40940 () (_ BitVec 1))
(declare-fun node_0x7ffff3a40550 () (_ BitVec 64))
(declare-fun srem_0x7ffff3a406c0 () (_ BitVec 64))
(declare-fun ashr_0x7ffff3a3ffb0 () (_ BitVec 64))
(declare-fun node_0x7ffff3a3fe10 () (_ BitVec 64))
(declare-fun node_0x7ffff3a3fa90 () (_ BitVec 64))
(declare-fun p2i_0x7ffff3a3fc10 () (_ BitVec 64))
(declare-fun node_0x7ffff3a3f620 () (_ BitVec 64))
(declare-fun LdMem_0x7ffff3a3f7c0 () (_ BitVec 64))
(declare-fun StMem_0x4d45d500 () (_ BitVec 64))
(declare-fun StMem_0x4d45cd60 () (_ BitVec 64))
(declare-fun node_0x7ffff39ecc40 () (_ BitVec 1))
(declare-fun ine_0x7ffff3a3e0c0 () (_ BitVec 1))
(declare-fun node_0x7ffff3a3ddd0 () (_ BitVec 32))
(declare-fun zext_0x7ffff3a3dbd0 () (_ BitVec 32))
(declare-fun node_0x7ffff3a3da50 () (_ BitVec 32))
(declare-fun node_0x7ffff3a3d600 () (_ BitVec 8))
(declare-fun LdMem_0x7ffff3a3d780 () (_ BitVec 8))
(declare-fun node_0x7ffff39ebcb0 () (_ BitVec 1))
(declare-fun ine_0x7ffff3a3c980 () (_ BitVec 1))
(declare-fun node_0x7ffff3a3c5b0 () (_ BitVec 64))
(declare-fun and_0x7ffff3a3c750 () (_ BitVec 64))
(declare-fun node_0x7ffff3a3c260 () (_ BitVec 64))
(declare-fun p2i_0x7ffff3a3c3b0 () (_ BitVec 64))
(declare-fun ashr_0x7ffff3a3bd40 () (_ BitVec 64))
(declare-fun node_0x7ffff3a3bba0 () (_ BitVec 64))
(declare-fun node_0x7ffff3a3b6e0 () (_ BitVec 64))
(declare-fun p2i_0x7ffff3a3b860 () (_ BitVec 64))
(declare-fun node_0x7ffff3a3b270 () (_ BitVec 64))
(declare-fun LdMem_0x7ffff3a3b410 () (_ BitVec 64))
(declare-fun parg_node_0x4d45d6b0 () (_ BitVec 64))
(declare-fun parg_node_0x4d45cf10 () (_ BitVec 64))
(declare-fun node_0x7ffff39eae30 () (_ BitVec 1))
(declare-fun ine_0x7ffff3a39ce0 () (_ BitVec 1))
(declare-fun node_0x7ffff3a399f0 () (_ BitVec 32))
(declare-fun zext_0x7ffff3a397f0 () (_ BitVec 32))
(declare-fun node_0x7ffff3a39670 () (_ BitVec 32))
(declare-fun node_0x7ffff3a39220 () (_ BitVec 8))
(declare-fun LdMem_0x7ffff3a393a0 () (_ BitVec 8))
(declare-fun node_0x7ffff39e9ef0 () (_ BitVec 1))
(declare-fun ine_0x7ffff3a38580 () (_ BitVec 1))
(declare-fun node_0x7ffff3a381b0 () (_ BitVec 64))
(declare-fun and_0x7ffff3a38350 () (_ BitVec 64))
(declare-fun node_0x7ffff3a37e30 () (_ BitVec 64))
(declare-fun p2i_0x7ffff3a37fb0 () (_ BitVec 64))
(declare-fun node_0x7ffff3a37a10 () (_ BitVec 64))
(declare-fun select_0x7ffff3a37b90 () (_ BitVec 64))
(declare-fun node_0x7ffff3ae9da0 () (_ BitVec 64))
(assert
 (let (($x169 (= node_0x7ffff39e63f0 (_ bv1 1))))
 (let (($x172 (not $x169)))
 (let (($x171 (= node_0x7ffff39e7da0 (_ bv1 1))))
 (let (($x248 (not $x171)))
 (let (($x249 (and $x248 $x172)))
 (let (($x5670 (= node_0x7ffff3a370e0 (_ bv0 1))))
 (and $x5670 $x249))))))))
(assert
 (let (($x322 (= node_0x7ffff3a370e0 (_ bv1 1))))
 (let (($x449 (= select_0x7ffff3a37770 (ite $x322 carg_node_0x7ffff39e5050 carg_node_0x7ffff39e55a0))))
 (let (($x3172 (= node_0x7ffff3a370e0 iult_0x7ffff3a37260)))
 (let (($x5705 (= node_0x7ffff3a36c90 LdMem_0x7ffff3a36e10)))
 (let (($x3139 (= StMem_0x4d45f650 parg_node_0x4d45f800)))
 (let (($x4256 (= LdMem_0x7ffff3a36e10 StMem_0x4d45f650)))
 (let (($x3145 (not (= R0x7ffff39e5160 (_ bv1 1)))))
 (let (($x3035 (or $x3145 $x4256)))
 (let (($x331 (= iult_0x7ffff3a37260 (ite (bvult node_0x7ffff3a36310 node_0x7ffff3a36c90) (_ bv1 1) (_ bv0 1)))))
 (let (($x3631 (= node_0x7ffff3a36310 LdMem_0x7ffff3a36490)))
 (let (($x4247 (= StMem_0x4d45fea0 parg_node_0x4d460050)))
 (let (($x3755 (= LdMem_0x7ffff3a36490 StMem_0x4d45fea0)))
 (let (($x4183 (or $x3145 $x3755)))
 (let (($x11810 (= node_0x7ffff39e7da0 ine_0x7ffff3a356d0)))
 (let (($x225 (= ine_0x7ffff3a356d0 (ite (and (distinct node_0x7ffff3a353e0 (_ bv5 32)) true) (_ bv1 1) (_ bv0 1)))))
 (let (($x3049 (= node_0x7ffff3a35060 zext_0x7ffff3a351e0)))
 (let (($x258 (= zext_0x7ffff3a351e0 ((_ zero_extend 24) node_0x7ffff3a34400))))
 (let (($x94743 (= node_0x7ffff3a34400 LdMem_0x7ffff3a34d90)))
 (let (($x6301 (= StMem_0x4d435830 parg_node_0x4d435940)))
 (let (($x4286 (= LdMem_0x7ffff3a34d90 StMem_0x4d435830)))
 (let (($x94706 (or $x3145 $x4286)))
 (let (($x987 (= node_0x7ffff3a353e0 (_ bv1 32))))
 (let (($x1063 (= node_0x7ffff3a353e0 node_0x7ffff3a35060)))
 (let (($x3845 (or $x1063 $x987)))
 (let (($x227 (= node_0x7ffff39e6f40 (_ bv1 1))))
 (let (($x169 (= node_0x7ffff39e63f0 (_ bv1 1))))
 (let (($x172 (not $x169)))
 (let (($x3310 (or (not (and $x172 $x227)) $x987)))
 (let (($x12367 (or (not (and (not $x227) $x172)) $x1063)))
 (let (($x3191 (= node_0x7ffff39e6f40 ine_0x7ffff3a33980)))
 (let (($x235 (= ine_0x7ffff3a33980 (ite (and (distinct node_0x7ffff3a335b0 (_ bv0 64)) true) (_ bv1 1) (_ bv0 1)))))
 (let (($x6692 (= node_0x7ffff3a335b0 and_0x7ffff3a33750)))
 (let (($x240 (= and_0x7ffff3a33750 (bvand node_0x7ffff3a33240 (_ bv1 64)))))
 (let (($x244 (= p2i_0x7ffff3a333b0 carg_node_0x7ffff39e55a0)))
 (let (($x3069 (= node_0x7ffff3a33240 p2i_0x7ffff3a333b0)))
 (let (($x6855 (= node_0x7ffff39e63f0 ine_0x7ffff3a32ea0)))
 (let (($x179 (= ine_0x7ffff3a32ea0 (ite (and (distinct node_0x7ffff3a32550 (_ bv5 32)) true) (_ bv1 1) (_ bv0 1)))))
 (let (($x4370 (= node_0x7ffff3a321d0 zext_0x7ffff3a32350)))
 (let (($x210 (= zext_0x7ffff3a32350 ((_ zero_extend 24) node_0x7ffff3a31d80))))
 (let (($x5981 (= node_0x7ffff3a31d80 LdMem_0x7ffff3a31f00)))
 (let (($x3250 (= StMem_0x4d4355f0 parg_node_0x4d435700)))
 (let (($x4016 (= LdMem_0x7ffff3a31f00 StMem_0x4d4355f0)))
 (let (($x2933 (or $x3145 $x4016)))
 (let (($x438 (= node_0x7ffff3a32550 (_ bv1 32))))
 (let (($x377 (= node_0x7ffff3a32550 node_0x7ffff3a321d0)))
 (let (($x4735 (or $x377 $x438)))
 (let (($x181 (= node_0x7ffff39e6aa0 (_ bv1 1))))
 (let (($x182 (not $x181)))
 (let (($x4624 (or $x182 $x438)))
 (let (($x6175 (or $x181 $x377)))
 (let (($x6448 (= node_0x7ffff39e6aa0 ine_0x7ffff3a30cc0)))
 (let (($x188 (= ine_0x7ffff3a30cc0 (ite (and (distinct node_0x7ffff3a307b0 (_ bv0 64)) true) (_ bv1 1) (_ bv0 1)))))
 (let (($x5930 (= node_0x7ffff3a307b0 and_0x7ffff3a30950)))
 (let (($x194 (= and_0x7ffff3a30950 (bvand node_0x7ffff3a30410 (_ bv1 64)))))
 (let (($x198 (= p2i_0x7ffff39ebe00 carg_node_0x7ffff39e5050)))
 (let (($x3224 (= node_0x7ffff3a30410 p2i_0x7ffff39ebe00)))
 (and $x3224 $x198 $x194 $x5930 $x188 $x6448 $x6175 $x4624 $x4735 $x2933 $x4016 $x3250 $x5981 $x210 $x4370 $x179 $x6855 $x3069 $x244 $x240 $x6692 $x235 $x3191 $x12367 $x3310 $x3845 $x94706 $x4286 $x6301 $x94743 $x258 $x3049 $x225 $x11810 $x4183 $x3755 $x4247 $x3631 $x331 $x3035 $x4256 $x3139 $x5705 $x3172 $x449))))))))))))))))))))))))))))))))))))))))))))))))))))))))))
(assert
 (= node_0x7ffff3a375d0 select_0x7ffff3a37770))
(assert
 (let (($x169 (= node_0x7ffff39e63f0 (_ bv1 1))))
 (let (($x172 (not $x169)))
 (let (($x171 (= node_0x7ffff39e7da0 (_ bv1 1))))
 (let (($x248 (not $x171)))
 (let (($x249 (and $x248 $x172)))
 (let (($x204 (= node_0x7ffff39eda50 (_ bv1 1))))
 (let (($x298 (and $x204 $x249)))
 (let (($x278 (= node_0x7ffff39ee630 (_ bv1 1))))
 (let (($x501 (not $x278)))
 (let (($x503 (or (and (not $x204) $x249) (and $x501 $x298))))
 (let (($x201 (= node_0x7ffff39f0740 (_ bv1 1))))
 (let (($x519 (and $x201 $x503)))
 (let (($x200 (= node_0x7ffff39f1400 (_ bv1 1))))
 (let (($x689 (and $x200 $x519)))
 (let (($x576 (or (and (not $x201) $x503) (and (not $x200) $x519) (and (not (= node_0x7ffff39f2180 (_ bv1 1))) $x689))))
 (let (($x351 (= node_0x7ffff39f5df0 (_ bv1 1))))
 (let (($x564 (and $x351 $x576)))
 (let (($x557 (= node_0x7ffff39f6aa0 (_ bv1 1))))
 (let (($x765 (not $x557)))
 (let (($x766 (and $x765 $x564)))
 (let (($x764 (= node_0x7ffff39f9250 (_ bv1 1))))
 (let (($x781 (not $x764)))
 (let (($x783 (or (and (not (= node_0x7ffff39f84f0 (_ bv1 1))) (and $x557 $x564)) (and $x781 $x766))))
 (let (($x778 (= node_0x7ffff3a05000 (_ bv1 1))))
 (let (($x784 (and $x778 $x783)))
 (let (($x776 (= node_0x7ffff3a088d0 (_ bv1 1))))
 (let (($x927 (and $x776 $x784)))
 (let (($x849 (not $x778)))
 (let (($x850 (and $x849 $x783)))
 (let (($x848 (= node_0x7ffff3a09830 (_ bv1 1))))
 (let (($x905 (and $x848 $x850)))
 (let (($x767 (and $x764 $x766)))
 (let (($x762 (= node_0x7ffff39fcdf0 (_ bv1 1))))
 (let (($x883 (and $x762 $x767)))
 (let (($x619 (and $x557 $x564)))
 (let (($x617 (= node_0x7ffff39f84f0 (_ bv1 1))))
 (let (($x752 (and $x617 $x619)))
 (let (($x659 (= node_0x7ffff39fc050 (_ bv1 1))))
 (let (($x855 (and $x659 $x752)))
 (or (and (not $x659) $x752) (and (not $x762) $x767) (and (not $x776) $x784) (and (not $x848) $x850) (and (not (= node_0x7ffff3a14cc0 (_ bv1 1))) $x855) (and (not (= node_0x7ffff3a17210 (_ bv1 1))) $x883) (and (not (= node_0x7ffff3a1d540 (_ bv1 1))) $x905) (and (not (= node_0x7ffff3a20950 (_ bv1 1))) $x927))))))))))))))))))))))))))))))))))))))))))
(assert
 (let (($x4005 (= node_0x7ffff3a375d0 (_ bv0 64))))
 (let (($x4279 (or $x4005 (and (distinct node_0x7ffff3a375d0 (_ bv0 64)) true))))
 (let (($x3816 (and (= gep_0x7ffff3ae9fb0 (ite $x4005 (_ bv0 64) node_0x7ffff3a375d0)) $x4279)))
 (let (($x861 (= islt_0x7ffff3a53a20 (ite (bvslt (_ bv1 64) node_0x7ffff3a50250) (_ bv1 1) (_ bv0 1)))))
 (let (($x11704 (= node_0x7ffff39fc050 islt_0x7ffff3a53a20)))
 (let (($x13428 (= node_0x7ffff3a14cc0 islt_0x7ffff3aa8840)))
 (let (($x938 (= islt_0x7ffff3aa8840 (ite (bvslt (_ bv2 64) node_0x7ffff3a50250) (_ bv1 1) (_ bv0 1)))))
 (let (($x12353 (= node_0x7ffff3a50250 udiv_0x7ffff3a503f0)))
 (let (($x12350 (= node_0x7ffff3a4fd80 LdMem_0x7ffff3a4ff00)))
 (let (($x870 (or (or (= node_0x7ffff3a4fd80 (_ bv0 64)) (= (_ bv10 64) (_ bv0 64))) (and (distinct udiv_0x7ffff3a503f0 (_ bv0 64)) true))))
 (let (($x871 (and (= udiv_0x7ffff3a503f0 (bvudiv node_0x7ffff3a4fd80 (_ bv10 64))) $x870)))
 (let (($x889 (= islt_0x7ffff3a57df0 (ite (bvslt (_ bv1 64) node_0x7ffff3a54790) (_ bv1 1) (_ bv0 1)))))
 (let (($x13515 (= node_0x7ffff39fcdf0 islt_0x7ffff3a57df0)))
 (let (($x14346 (= node_0x7ffff3a17210 islt_0x7ffff3aac140)))
 (let (($x943 (= islt_0x7ffff3aac140 (ite (bvslt (_ bv2 64) node_0x7ffff3a54790) (_ bv1 1) (_ bv0 1)))))
 (let (($x11134 (= node_0x7ffff3a54790 udiv_0x7ffff3a54930)))
 (let (($x13971 (= node_0x7ffff3a54310 LdMem_0x7ffff3a4ff00)))
 (let (($x898 (or (or (= node_0x7ffff3a54310 (_ bv0 64)) (= (_ bv10 64) (_ bv0 64))) (and (distinct udiv_0x7ffff3a54930 (_ bv0 64)) true))))
 (let (($x899 (and (= udiv_0x7ffff3a54930 (bvudiv node_0x7ffff3a54310 (_ bv10 64))) $x898)))
 (let ((?x910 (ite (bvslt (_ bv1 64) node_0x7ffff3a67f40) (_ bv1 1) (_ bv0 1))))
 (let (($x911 (= islt_0x7ffff3a6ea50 ?x910)))
 (let (($x13503 (= node_0x7ffff3a09830 islt_0x7ffff3a6ea50)))
 (let ((?x947 (ite (bvslt (_ bv2 64) node_0x7ffff3a67f40) (_ bv1 1) (_ bv0 1))))
 (let (($x948 (= islt_0x7ffff3ad50e0 ?x947)))
 (let (($x13463 (= node_0x7ffff3a1d540 islt_0x7ffff3ad50e0)))
 (let (($x930 (= islt_0x7ffff3a6e560 ?x910)))
 (let (($x12712 (= node_0x7ffff3a088d0 islt_0x7ffff3a6e560)))
 (let (($x12959 (= node_0x7ffff3a20950 islt_0x7ffff3ae99f0)))
 (let (($x951 (= islt_0x7ffff3ae99f0 ?x947)))
 (let (($x10717 (= node_0x7ffff3a67f40 udiv_0x7ffff3a680e0)))
 (let (($x920 (or (or (= node_0x7ffff3a67ac0 (_ bv0 64)) (= (_ bv10 64) (_ bv0 64))) (and (distinct udiv_0x7ffff3a680e0 (_ bv0 64)) true))))
 (let (($x921 (and (= udiv_0x7ffff3a680e0 (bvudiv node_0x7ffff3a67ac0 (_ bv10 64))) $x920)))
 (let (($x12371 (= node_0x7ffff3a67ac0 LdMem_0x7ffff3a4ff00)))
 (let (($x12489 (= LdMem_0x7ffff3a4ff00 StMem_0x4d45fea0)))
 (let (($x12105 (= LdMem_0x7ffff3a4ff00 StMem_0x4d45f650)))
 (let (($x12971 (or $x12105 $x12489)))
 (let (($x366 (= xor_0x28f75560 (bvxor node_0x7ffff3a370e0 (_ bv1 1)))))
 (let (($x12913 (= R0x28f75380 xor_0x28f75560)))
 (let (($x1274 (= R0x28f75380 (_ bv1 1))))
 (let (($x1108 (not $x1274)))
 (let (($x3489 (or $x1108 $x12489)))
 (let (($x14037 (= R0x28f6d490 node_0x7ffff3a370e0)))
 (let (($x414 (not (= R0x28f6d490 (_ bv1 1)))))
 (let (($x12586 (or $x414 $x12105)))
 (let (($x12250 (= node_0x7ffff3a05000 ieq_0x7ffff3a671c0)))
 (let (($x788 (= node_0x7ffff3a66f20 (_ bv1 32))))
 (let ((?x789 (ite $x788 (_ bv1 1) (_ bv0 1))))
 (let (($x790 (= ieq_0x7ffff3a671c0 ?x789)))
 (let (($x12554 (= node_0x7ffff3a64ab0 zext_0x7ffff3a64c30)))
 (let (($x821 (= zext_0x7ffff3a64c30 ((_ zero_extend 24) node_0x7ffff3a64690))))
 (let (($x12810 (= node_0x7ffff3a64690 LdMem_0x7ffff3a647e0)))
 (let (($x12865 (= StMem_0x4d465b50 node_0x28e97210)))
 (let ((?x843 ((_ extract 7 0) node_0x4d4fbe70)))
 (let (($x844 (= trunc_0x4d4fbfa0 ?x843)))
 (let (($x12684 (= node_0x28e97210 trunc_0x4d4fbfa0)))
 (let (($x13800 (= StMem_0x4d465640 node_0x28e978b0)))
 (let ((?x836 ((_ extract 7 0) node_0x4d4fbad0)))
 (let (($x837 (= trunc_0x4d4fbc00 ?x836)))
 (let (($x13918 (= node_0x28e978b0 trunc_0x4d4fbc00)))
 (let (($x12462 (= LdMem_0x7ffff3a647e0 StMem_0x4d465b50)))
 (let (($x13161 (= LdMem_0x7ffff3a647e0 StMem_0x4d465640)))
 (let (($x12493 (or $x13161 $x12462)))
 (let (($x11065 (or $x414 $x12462)))
 (let (($x12235 (or $x1108 $x13161)))
 (let (($x1965 (= node_0x7ffff3a66f20 node_0x7ffff3a64ab0)))
 (let (($x13366 (or $x1965 $x788)))
 (let (($x792 (= node_0x7ffff39fdd70 (_ bv1 1))))
 (let (($x169 (= node_0x7ffff39e63f0 (_ bv1 1))))
 (let (($x172 (not $x169)))
 (let (($x171 (= node_0x7ffff39e7da0 (_ bv1 1))))
 (let (($x248 (not $x171)))
 (let (($x249 (and $x248 $x172)))
 (let (($x204 (= node_0x7ffff39eda50 (_ bv1 1))))
 (let (($x298 (and $x204 $x249)))
 (let (($x278 (= node_0x7ffff39ee630 (_ bv1 1))))
 (let (($x501 (not $x278)))
 (let (($x503 (or (and (not $x204) $x249) (and $x501 $x298))))
 (let (($x201 (= node_0x7ffff39f0740 (_ bv1 1))))
 (let (($x519 (and $x201 $x503)))
 (let (($x200 (= node_0x7ffff39f1400 (_ bv1 1))))
 (let (($x689 (and $x200 $x519)))
 (let (($x576 (or (and (not $x201) $x503) (and (not $x200) $x519) (and (not (= node_0x7ffff39f2180 (_ bv1 1))) $x689))))
 (let (($x351 (= node_0x7ffff39f5df0 (_ bv1 1))))
 (let (($x564 (and $x351 $x576)))
 (let (($x557 (= node_0x7ffff39f6aa0 (_ bv1 1))))
 (let (($x765 (not $x557)))
 (let (($x766 (and $x765 $x564)))
 (let (($x764 (= node_0x7ffff39f9250 (_ bv1 1))))
 (let (($x781 (not $x764)))
 (let (($x783 (or (and (not (= node_0x7ffff39f84f0 (_ bv1 1))) (and $x557 $x564)) (and $x781 $x766))))
 (let (($x12725 (or (not (and $x783 $x792)) $x788)))
 (let (($x13007 (or (not (and (not $x792) $x783)) $x1965)))
 (let (($x756 (= node_0x7ffff3a4e770 (_ bv18446744073709551613 64))))
 (let ((?x757 (ite $x756 (_ bv1 1) (_ bv0 1))))
 (let (($x758 (= ieq_0x7ffff3a4f140 ?x757)))
 (let (($x11755 (= node_0x7ffff39f84f0 ieq_0x7ffff3a4f140)))
 (let (($x13769 (= node_0x7ffff39f0740 iult_0x7ffff3a441e0)))
 (let (($x540 (= node_0x7ffff3a418f0 (_ bv0 64))))
 (let (($x542 (or $x540 (= (_ bv8 64) (_ bv0 64)))))
 (let (($x545 (and (= mul_0x7ffff3a43fb0 (bvmul node_0x7ffff3a418f0 (_ bv8 64))) (or $x542 (and (distinct mul_0x7ffff3a43fb0 (_ bv0 64)) true)))))
 (let (($x14048 (= node_0x7ffff3a43e10 mul_0x7ffff3a43fb0)))
 (let (($x526 (= iult_0x7ffff3a441e0 (ite (bvult node_0x7ffff3a438f0 node_0x7ffff3a43e10) (_ bv1 1) (_ bv0 1)))))
 (let (($x14063 (= node_0x7ffff3a438f0 LdMem_0x7ffff3a43a70)))
 (let (($x12415 (= StMem_0x4d479820 parg_node_0x4d479960)))
 (let (($x11948 (= LdMem_0x7ffff3a43a70 StMem_0x4d479820)))
 (let (($x3145 (not (= R0x7ffff39e5160 (_ bv1 1)))))
 (let (($x11817 (or $x3145 $x11948)))
 (let (($x568 (= islt_0x7ffff3a450e0 (ite (bvslt (_ bv0 64) node_0x7ffff3a418f0) (_ bv1 1) (_ bv0 1)))))
 (let (($x10604 (= node_0x7ffff39f1400 islt_0x7ffff3a450e0)))
 (let (($x12615 (= node_0x7ffff39f5df0 iult_0x7ffff3a481c0)))
 (let (($x560 (= iult_0x7ffff3a481c0 (ite (bvult (_ bv1 64) node_0x7ffff3a47da0) (_ bv1 1) (_ bv0 1)))))
 (let (($x13144 (= node_0x7ffff3a47da0 udiv_0x7ffff3a47f40)))
 (let (($x726 (or (or (= node_0x7ffff3a47790 (_ bv0 64)) (= (_ bv10 64) (_ bv0 64))) (and (distinct udiv_0x7ffff3a47f40 (_ bv0 64)) true))))
 (let (($x670 (and (= udiv_0x7ffff3a47f40 (bvudiv node_0x7ffff3a47790 (_ bv10 64))) $x726)))
 (let (($x12406 (= node_0x7ffff3a47790 LdMem_0x7ffff3a47910)))
 (let (($x14408 (= LdMem_0x7ffff3a47910 StMem_0x4d45fea0)))
 (let (($x13013 (= LdMem_0x7ffff3a47910 StMem_0x4d45f650)))
 (let (($x12765 (or $x13013 $x14408)))
 (let (($x13110 (or $x414 $x14408)))
 (let (($x13288 (or $x1108 $x13013)))
 (let (($x734 (= islt_0x7ffff3a4ec30 (ite (bvslt node_0x7ffff3a4e770 (_ bv5 64)) (_ bv1 1) (_ bv0 1)))))
 (let (($x12900 (= node_0x7ffff39f6aa0 islt_0x7ffff3a4ec30)))
 (let (($x13959 (= node_0x7ffff39f9250 ieq_0x7ffff3a4f4f0)))
 (let (($x770 (= node_0x7ffff3a4e770 (_ bv5 64))))
 (let ((?x771 (ite $x770 (_ bv1 1) (_ bv0 1))))
 (let (($x772 (= ieq_0x7ffff3a4f4f0 ?x771)))
 (let (($x738 (= p2i_0x7ffff3a4e8f0 node_0x7ffff3a34930)))
 (let (($x14009 (= node_0x7ffff3a4e770 p2i_0x7ffff3a4e8f0)))
 (let (($x11177 (= node_0x7ffff39fdd70 ine_0x7ffff3a588f0)))
 (let (($x800 (= ine_0x7ffff3a588f0 (ite (and (distinct node_0x7ffff3a58520 (_ bv0 64)) true) (_ bv1 1) (_ bv0 1)))))
 (let (($x12319 (= node_0x7ffff3a58520 and_0x7ffff3a586c0)))
 (let (($x805 (= and_0x7ffff3a586c0 (bvand node_0x7ffff3a581d0 (_ bv1 64)))))
 (let (($x12133 (= node_0x7ffff3a581d0 p2i_0x7ffff3a58320)))
 (let (($x808 (= p2i_0x7ffff3a58320 node_0x7ffff3a34930)))
 (let (($x10634 (= node_0x7ffff3a34930 LdMem_0x7ffff3a34ad0)))
 (let (($x12825 (= StMem_0x4d45e630 parg_node_0x4d45e7e0)))
 (let (($x12987 (= StMem_0x4d45dd80 parg_node_0x4d45df30)))
 (let (($x13214 (= LdMem_0x7ffff3a34ad0 StMem_0x4d45e630)))
 (let (($x5868 (= LdMem_0x7ffff3a34ad0 StMem_0x4d45dd80)))
 (let (($x2674 (or $x5868 $x13214)))
 (let (($x13747 (or $x414 $x13214)))
 (let (($x15043 (or $x1108 $x5868)))
 (let (($x13882 (= node_0x7ffff39f2180 islt_0x7ffff3a46ec0)))
 (let (($x616 (= islt_0x7ffff3a46ec0 (ite (bvslt (_ bv1 64) node_0x7ffff3a418f0) (_ bv1 1) (_ bv0 1)))))
 (let (($x1284 (= node_0x7ffff3a418f0 node_0x7ffff3a40cf0)))
 (let (($x1107 (= node_0x7ffff3a418f0 node_0x7ffff3a3bf70)))
 (let (($x13553 (or $x1107 $x1284)))
 (let (($x10692 (= node_0x7ffff39ee630 ine_0x7ffff3a41510)))
 (let (($x509 (= ine_0x7ffff3a41510 (ite (and (distinct node_0x7ffff3a410f0 (_ bv0 64)) true) (_ bv1 1) (_ bv0 1)))))
 (let (($x12238 (= node_0x7ffff3a410f0 srem_0x7ffff3a41290)))
 (let (($x514 (= srem_0x7ffff3a41290 (bvsrem node_0x7ffff3a40cf0 node_0x7ffff3a401e0))))
 (let (($x518 (= add_0x7ffff3a40e60 (bvadd node_0x7ffff3a3bf70 node_0x7ffff3a3bf70))))
 (let (($x13542 (= node_0x7ffff3a40cf0 add_0x7ffff3a40e60)))
 (let (($x13455 (or (not (and $x298 $x501)) $x1284)))
 (let (($x12181 (or (not (and $x249 (not $x204))) $x1107)))
 (let (($x13051 (= node_0x7ffff39eda50 ine_0x7ffff3a40940)))
 (let (($x319 (= ine_0x7ffff3a40940 (ite (and (distinct node_0x7ffff3a40550 (_ bv0 64)) true) (_ bv1 1) (_ bv0 1)))))
 (let (($x12818 (= node_0x7ffff3a40550 srem_0x7ffff3a406c0)))
 (let (($x14465 (= node_0x7ffff3a3fe10 ashr_0x7ffff3a3ffb0)))
 (let (($x488 (or (or (= node_0x7ffff3a3fa90 (_ bv0 64)) (bvsge (_ bv2 64) (_ bv10 64))) (and (distinct ashr_0x7ffff3a3ffb0 (_ bv0 64)) true))))
 (let ((?x483 (bvashr node_0x7ffff3a3fa90 (_ bv2 64))))
 (let (($x484 (= ashr_0x7ffff3a3ffb0 ?x483)))
 (let (($x489 (and $x484 $x488)))
 (let (($x12356 (= node_0x7ffff3a3fa90 p2i_0x7ffff3a3fc10)))
 (let (($x493 (= p2i_0x7ffff3a3fc10 node_0x7ffff3a3f620)))
 (let (($x13233 (= node_0x7ffff3a3f620 LdMem_0x7ffff3a3f7c0)))
 (let (($x11619 (= LdMem_0x7ffff3a3f7c0 StMem_0x4d45d500)))
 (let (($x4344 (= LdMem_0x7ffff3a3f7c0 StMem_0x4d45cd60)))
 (let (($x12163 (or $x4344 $x11619)))
 (let (($x11724 (or $x414 $x11619)))
 (let (($x12967 (or $x1108 $x4344)))
 (let (($x1282 (= node_0x7ffff3a401e0 (_ bv1 64))))
 (let (($x152 (= node_0x7ffff3a401e0 node_0x7ffff3a3fe10)))
 (let (($x12067 (or $x152 $x1282)))
 (let (($x13521 (or (not (and $x249 (= node_0x7ffff39ecc40 (_ bv1 1)))) $x1282)))
 (let (($x12464 (or (not (and (not (= node_0x7ffff39ecc40 (_ bv1 1))) $x249)) $x152)))
 (let (($x12925 (= node_0x7ffff39ecc40 ine_0x7ffff3a3e0c0)))
 (let (($x426 (= ine_0x7ffff3a3e0c0 (ite (and (distinct node_0x7ffff3a3ddd0 (_ bv5 32)) true) (_ bv1 1) (_ bv0 1)))))
 (let (($x14529 (= node_0x7ffff3a3da50 zext_0x7ffff3a3dbd0)))
 (let (($x463 (= zext_0x7ffff3a3dbd0 ((_ zero_extend 24) node_0x7ffff3a3d600))))
 (let (($x12218 (= node_0x7ffff3a3d600 LdMem_0x7ffff3a3d780)))
 (let (($x13320 (= LdMem_0x7ffff3a3d780 StMem_0x4d435830)))
 (let (($x11688 (= LdMem_0x7ffff3a3d780 StMem_0x4d4355f0)))
 (let (($x12582 (or $x11688 $x13320)))
 (let (($x12786 (or $x1108 $x13320)))
 (let (($x13926 (or $x414 $x11688)))
 (let (($x1191 (= node_0x7ffff3a3ddd0 (_ bv1 32))))
 (let (($x1244 (= node_0x7ffff3a3ddd0 node_0x7ffff3a3da50)))
 (let (($x13179 (or $x1244 $x1191)))
 (let (($x12851 (or (not (and $x249 (= node_0x7ffff39ebcb0 (_ bv1 1)))) $x1191)))
 (let (($x10781 (or (not (and (not (= node_0x7ffff39ebcb0 (_ bv1 1))) $x249)) $x1244)))
 (let (($x11725 (= node_0x7ffff39ebcb0 ine_0x7ffff3a3c980)))
 (let (($x436 (= ine_0x7ffff3a3c980 (ite (and (distinct node_0x7ffff3a3c5b0 (_ bv0 64)) true) (_ bv1 1) (_ bv0 1)))))
 (let (($x13137 (= node_0x7ffff3a3c5b0 and_0x7ffff3a3c750)))
 (let (($x441 (= and_0x7ffff3a3c750 (bvand node_0x7ffff3a3c260 (_ bv1 64)))))
 (let (($x445 (= p2i_0x7ffff3a3c3b0 node_0x7ffff3a375d0)))
 (let (($x11901 (= node_0x7ffff3a3c260 p2i_0x7ffff3a3c3b0)))
 (let (($x294 (= srem_0x7ffff3a406c0 (bvsrem node_0x7ffff3a3bf70 node_0x7ffff3a401e0))))
 (let (($x12256 (= node_0x7ffff3a3bba0 ashr_0x7ffff3a3bd40)))
 (let (($x398 (or (or (= node_0x7ffff3a3b6e0 (_ bv0 64)) (bvsge (_ bv2 64) (_ bv10 64))) (and (distinct ashr_0x7ffff3a3bd40 (_ bv0 64)) true))))
 (let ((?x391 (bvashr node_0x7ffff3a3b6e0 (_ bv2 64))))
 (let (($x392 (= ashr_0x7ffff3a3bd40 ?x391)))
 (let (($x399 (and $x392 $x398)))
 (let (($x11836 (= node_0x7ffff3a3b6e0 p2i_0x7ffff3a3b860)))
 (let (($x403 (= p2i_0x7ffff3a3b860 node_0x7ffff3a3b270)))
 (let (($x13435 (= node_0x7ffff3a3b270 LdMem_0x7ffff3a3b410)))
 (let (($x11695 (= StMem_0x4d45d500 parg_node_0x4d45d6b0)))
 (let (($x12657 (= StMem_0x4d45cd60 parg_node_0x4d45cf10)))
 (let (($x11991 (= LdMem_0x7ffff3a3b410 StMem_0x4d45d500)))
 (let (($x11626 (= LdMem_0x7ffff3a3b410 StMem_0x4d45cd60)))
 (let (($x12962 (or $x11626 $x11991)))
 (let (($x13340 (or $x1108 $x11991)))
 (let (($x12553 (or $x414 $x11626)))
 (let (($x1087 (= node_0x7ffff3a3bf70 (_ bv1 64))))
 (let (($x978 (= node_0x7ffff3a3bf70 node_0x7ffff3a3bba0)))
 (let (($x11832 (or $x978 $x1087)))
 (let (($x12628 (or (not (and $x249 (= node_0x7ffff39eae30 (_ bv1 1)))) $x1087)))
 (let (($x13433 (or (not (and (not (= node_0x7ffff39eae30 (_ bv1 1))) $x249)) $x978)))
 (let (($x12618 (= node_0x7ffff39eae30 ine_0x7ffff3a39ce0)))
 (let (($x283 (= ine_0x7ffff3a39ce0 (ite (and (distinct node_0x7ffff3a399f0 (_ bv5 32)) true) (_ bv1 1) (_ bv0 1)))))
 (let (($x10652 (= node_0x7ffff3a39670 zext_0x7ffff3a397f0)))
 (let (($x359 (= zext_0x7ffff3a397f0 ((_ zero_extend 24) node_0x7ffff3a39220))))
 (let (($x12623 (= node_0x7ffff3a39220 LdMem_0x7ffff3a393a0)))
 (let (($x12606 (= LdMem_0x7ffff3a393a0 StMem_0x4d435830)))
 (let (($x13277 (= LdMem_0x7ffff3a393a0 StMem_0x4d4355f0)))
 (let (($x11734 (or $x13277 $x12606)))
 (let (($x12073 (or $x414 $x12606)))
 (let (($x12769 (or $x1108 $x13277)))
 (let (($x73 (= node_0x7ffff3a399f0 (_ bv1 32))))
 (let (($x815 (= node_0x7ffff3a399f0 node_0x7ffff3a39670)))
 (let (($x12400 (or $x815 $x73)))
 (let (($x12626 (or (not (and $x249 (= node_0x7ffff39e9ef0 (_ bv1 1)))) $x73)))
 (let (($x13010 (or (not (and (not (= node_0x7ffff39e9ef0 (_ bv1 1))) $x249)) $x815)))
 (let (($x5820 (= node_0x7ffff39e9ef0 ine_0x7ffff3a38580)))
 (let (($x296 (= ine_0x7ffff3a38580 (ite (and (distinct node_0x7ffff3a381b0 (_ bv0 64)) true) (_ bv1 1) (_ bv0 1)))))
 (let (($x13864 (= node_0x7ffff3a381b0 and_0x7ffff3a38350)))
 (let (($x311 (= and_0x7ffff3a38350 (bvand node_0x7ffff3a37e30 (_ bv1 64)))))
 (let (($x12515 (= node_0x7ffff3a37e30 p2i_0x7ffff3a37fb0)))
 (let (($x300 (= p2i_0x7ffff3a37fb0 node_0x7ffff3a37a10)))
 (let (($x322 (= node_0x7ffff3a370e0 (_ bv1 1))))
 (let (($x324 (= select_0x7ffff3a37b90 (ite $x322 carg_node_0x7ffff39e55a0 carg_node_0x7ffff39e5050))))
 (let (($x13897 (= node_0x7ffff3a37a10 select_0x7ffff3a37b90)))
 (and $x13897 $x324 $x300 $x12515 $x311 $x13864 $x296 $x5820 $x13010 $x12626 $x12400 $x12769 $x12073 $x11734 $x12623 $x359 $x10652 $x283 $x12618 $x13433 $x12628 $x11832 $x12553 $x13340 $x12962 $x12657 $x11695 $x13435 $x403 $x11836 $x399 $x12256 $x294 $x11901 $x445 $x441 $x13137 $x436 $x11725 $x10781 $x12851 $x13179 $x13926 $x12786 $x12582 $x12218 $x463 $x14529 $x426 $x12925 $x12464 $x13521 $x12067 $x12967 $x11724 $x12163 $x13233 $x493 $x12356 $x489 $x14465 $x12818 $x319 $x13051 $x12181 $x13455 $x13542 $x518 $x514 $x12238 $x509 $x10692 $x13553 $x616 $x13882 $x15043 $x13747 $x2674 $x12987 $x12825 $x10634 $x808 $x12133 $x805 $x12319 $x800 $x11177 $x14009 $x738 $x772 $x13959 $x12900 $x734 $x13288 $x13110 $x12765 $x12406 $x670 $x13144 $x560 $x12615 $x10604 $x568 $x11817 $x11948 $x12415 $x14063 $x526 $x14048 $x545 $x13769 $x11755 $x758 $x13007 $x12725 $x13366 $x12235 $x11065 $x12493 $x13918 $x837 $x13800 $x12684 $x844 $x12865 $x12810 $x821 $x12554 $x790 $x12250 $x12586 $x14037 $x3489 $x12913 $x366 $x12971 $x12371 $x921 $x10717 $x951 $x12959 $x12712 $x930 $x13463 $x948 $x13503 $x911 $x899 $x13971 $x11134 $x943 $x14346 $x13515 $x889 $x871 $x12350 $x12353 $x938 $x13428 $x11704 $x861 $x3816))))))))))))))))))))))))))))))))))))))))))))))))))))))))))))))))))))))))))))))))))))))))))))))))))))))))))))))))))))))))))))))))))))))))))))))))))))))))))))))))))))))))))))))))))))))))))))))))))))))))))))))))))))))))))))))))))))))))))))))))))))
(assert
 (= node_0x7ffff3ae9da0 gep_0x7ffff3ae9fb0))
(assert
 (= node_0x7ffff3ae9da0 (_ bv0 64)))
(maximize parg_node_0x4d45f800)
(maximize and_0x7ffff3a3c750)
(minimize node_0x7ffff3a37a10)
(minimize node_0x7ffff3a3bf70)
(minimize node_0x7ffff39e6f40)
(maximize node_0x7ffff3a64690)
(minimize StMem_0x4d479820)
(minimize node_0x7ffff3a32550)
(maximize node_0x7ffff3a3b270)
(minimize islt_0x7ffff3a4ec30)
(minimize node_0x7ffff3a39220)
(minimize islt_0x7ffff3a57df0)
(maximize node_0x7ffff3a370e0)
(minimize StMem_0x4d45dd80)
(maximize node_0x7ffff39f84f0)
(maximize node_0x7ffff3a3fa90)
(maximize parg_node_0x4d479960)
(minimize node_0x7ffff3a375d0)
(minimize parg_node_0x4d45e7e0)
(maximize ine_0x7ffff3a588f0)
(minimize and_0x7ffff3a30950)
(maximize ieq_0x7ffff3a4f140)
(minimize udiv_0x7ffff3a680e0)
(minimize islt_0x7ffff3ad50e0)
(maximize LdMem_0x7ffff3a43a70)
(maximize zext_0x7ffff3a3dbd0)
(minimize node_0x7ffff3a20950)
(maximize parg_node_0x4d45e7e0)
(minimize islt_0x7ffff3aac140)
(minimize node_0x7ffff39ecc40)
(minimize LdMem_0x7ffff3a43a70)
(maximize node_0x7ffff39e6aa0)
(minimize LdMem_0x7ffff3a647e0)
(minimize trunc_0x4d4fbc00)
(minimize node_0x7ffff3a418f0)
(minimize node_0x7ffff3a34400)
(minimize node_0x7ffff3a4fd80)
(minimize node_0x7ffff39e9ef0)
(maximize islt_0x7ffff3aa8840)
(maximize LdMem_0x7ffff3a36490)
(minimize node_0x7ffff3a1d540)
(minimize ashr_0x7ffff3a3ffb0)
(maximize islt_0x7ffff3a53a20)
(maximize node_0x7ffff3a3c260)
(maximize zext_0x7ffff3a351e0)
(maximize node_0x7ffff39ebcb0)
(minimize node_0x7ffff3a58520)
(minimize zext_0x7ffff3a32350)
(maximize node_0x7ffff3a40550)
(minimize mul_0x7ffff3a43fb0)
(check-sat)
(get-objectives)
